param sigma
: 1   2 :=
1 0.00001 0.99999
2 0.10000 0.90000
3 0.20000 0.80000
4 0.30000 0.70000
5 0.40000 0.60000
6 0.50000 0.50000
7 0.90000 0.10000
8 0.80000 0.20000
9 0.70000 0.30000
10 0.60000 0.40000
11 0.99999 0.00001
;
set S:=
1 2 3 4 5 6 7 8 9 10 11 12 13 14 15 16 17 18 19 20 21 22 23 24 25 26 27 28 29 30 ;

set C:=
1 2 3 4 5 6 7 8 9 10 11 12 13 14 15 16 17 18 19 20 ;

set A:=
1_1 1_2 2_1 2_2 3_1 3_2 4_1 4_2 4_3 5_1 5_2 6_1 6_2 7_1 7_2 7_3 8_1 8_2 8_3 9_1 9_2 9_3 10_1 10_2 10_3 11_1 11_2 12_1 12_2 12_3 13_1 13_2 14_1 14_2 14_3 15_1 15_2 16_1 16_2 16_3 17_1 17_2 17_3 18_1 18_2 19_1 19_2 19_3 20_1 20_2 20_3 ;

set T:=
1_1_2 1_3_4 1_5_6 1_7_8 1_9_10
2_1_2 2_3_4 2_5_6 2_7_8 2_9_10
3_1_2 3_3_4 3_5_6 3_7_8 3_9_10
4_1_2 4_3_4 4_5_6 4_7_8 4_9_10
5_1_2 5_3_4 5_5_6 5_7_8 5_9_10
;

set R:=
1 2 3 4 5 6 7 8 9 10 ;

set Ac[1]:=
1_1 1_2 ;
set Ac[2]:=
2_1 2_2 ;
set Ac[3]:=
3_1 3_2 ;
set Ac[4]:=
4_1 4_2 4_3 ;
set Ac[5]:=
5_1 5_2 ;
set Ac[6]:=
6_1 6_2 ;
set Ac[7]:=
7_1 7_2 7_3 ;
set Ac[8]:=
8_1 8_2 8_3 ;
set Ac[9]:=
9_1 9_2 9_3 ;
set Ac[10]:=
10_1 10_2 10_3 ;
set Ac[11]:=
11_1 11_2 ;
set Ac[12]:=
12_1 12_2 12_3 ;
set Ac[13]:=
13_1 13_2 ;
set Ac[14]:=
14_1 14_2 14_3 ;
set Ac[15]:=
15_1 15_2 ;
set Ac[16]:=
16_1 16_2 16_3 ;
set Ac[17]:=
17_1 17_2 17_3 ;
set Ac[18]:=
18_1 18_2 ;
set Ac[19]:=
19_1 19_2 19_3 ;
set Ac[20]:=
20_1 20_2 20_3 ;

set Cs[1]:=
2 6 9 10 20 ;
set Cs[2]:=
8 9 16 19 ;
set Cs[3]:=
3 5 10 17 ;
set Cs[4]:=
9 10 17 19 ;
set Cs[5]:=
3 7 11 13 ;
set Cs[6]:=
5 9 10 17 ;
set Cs[7]:=
6 7 12 16 ;
set Cs[8]:=
5 6 14 17 20 ;
set Cs[9]:=
12 13 15 19 ;
set Cs[10]:=
4 8 10 18 19 ;
set Cs[11]:=
6 9 12 16 17 ;
set Cs[12]:=
5 11 16 19 20 ;
set Cs[13]:=
5 10 16 18 ;
set Cs[14]:=
4 13 17 18 ;
set Cs[15]:=
1 5 6 7 11 ;
set Cs[16]:=
4 6 7 17 19 ;
set Cs[17]:=
2 10 11 15 ;
set Cs[18]:=
2 3 14 18 19 ;
set Cs[19]:=
10 12 19 20 ;
set Cs[20]:=
7 18 19 20 ;
set Cs[21]:=
6 10 12 15 ;
set Cs[22]:=
1 3 4 11 19 ;
set Cs[23]:=
4 5 9 10 14 ;
set Cs[24]:=
1 4 9 15 17 ;
set Cs[25]:=
3 5 6 12 16 ;
set Cs[26]:=
5 11 12 20 ;
set Cs[27]:=
8 9 10 15 16 ;
set Cs[28]:=
1 10 11 18 ;
set Cs[29]:=
4 10 13 19 ;
set Cs[30]:=
1 2 4 7 12 ;

set Ra[1_1]:=
1 2 3 4 5 6 7 8 9 10 ;
set Ra[1_2]:=
3 4 7 ;
set Ra[2_1]:=
1 2 3 4 5 6 7 9 10 ;
set Ra[2_2]:=
10 ;
set Ra[3_1]:=
1 2 3 4 5 6 8 9 10 ;
set Ra[3_2]:=
6 ;
set Ra[4_1]:=
3 ;
set Ra[4_2]:=
2 5 6 7 9 10 ;
set Ra[4_3]:=
2 3 4 9 10 ;
set Ra[5_1]:=
1 3 5 6 9 10 ;
set Ra[5_2]:=
1 2 3 4 5 6 7 8 9 10 ;
set Ra[6_1]:=
1 2 5 6 7 8 10 ;
set Ra[6_2]:=
1 4 10 ;
set Ra[7_1]:=
2 9 10 ;
set Ra[7_2]:=
10 ;
set Ra[7_3]:=
5 7 ;
set Ra[8_1]:=
1 3 4 5 7 9 ;
set Ra[8_2]:=
2 ;
set Ra[8_3]:=
1 6 8 9 ;
set Ra[9_1]:=
1 3 4 5 6 8 9 10 ;
set Ra[9_2]:=
1 3 4 5 7 ;
set Ra[9_3]:=
2 3 4 5 10 ;
set Ra[10_1]:=
2 3 4 ;
set Ra[10_2]:=
4 5 8 9 10 ;
set Ra[10_3]:=
1 2 5 7 8 9 ;
set Ra[11_1]:=
1 2 7 8 9 10 ;
set Ra[11_2]:=
1 2 3 4 5 6 7 9 10 ;
set Ra[12_1]:=
1 2 3 4 5 6 8 9 ;
set Ra[12_2]:=
3 5 6 ;
set Ra[12_3]:=
1 2 3 5 6 8 9 10 ;
set Ra[13_1]:=
1 3 4 5 6 8 9 10 ;
set Ra[13_2]:=
1 3 4 6 8 10 ;
set Ra[14_1]:=
3 4 5 ;
set Ra[14_2]:=
3 6 10 ;
set Ra[14_3]:=
1 5 8 9 10 ;
set Ra[15_1]:=
1 3 4 9 ;
set Ra[15_2]:=
1 2 5 6 8 ;
set Ra[16_1]:=
2 6 ;
set Ra[16_2]:=
2 5 8 9 ;
set Ra[16_3]:=
2 3 4 5 6 8 9 10 ;
set Ra[17_1]:=
1 2 3 4 5 6 7 8 9 10 ;
set Ra[17_2]:=
2 3 4 5 6 7 9 10 ;
set Ra[17_3]:=
1 3 5 7 ;
set Ra[18_1]:=
1 2 4 6 7 8 9 10 ;
set Ra[18_2]:=
1 4 ;
set Ra[19_1]:=
1 2 5 7 8 9 10 ;
set Ra[19_2]:=
2 3 5 6 7 8 9 ;
set Ra[19_3]:=
2 3 4 5 6 7 8 10 ;
set Ra[20_1]:=
1 2 3 4 5 6 7 8 9 10 ;
set Ra[20_2]:=
1 2 3 9 ;
set Ra[20_3]:=
3 5 8 ;

set Ts[1]:=
1_5_6 4_5_6 4_9_10 5_1_2 5_3_4 5_9_10 ;
set Ts[2]:=
1_3_4 1_9_10 2_9_10 3_7_8 4_3_4 5_5_6 ;
set Ts[3]:=
1_3_4 3_1_2 4_5_6 5_1_2 ;
set Ts[4]:=
1_1_2 2_3_4 3_1_2 4_3_4 5_1_2 5_3_4 5_5_6 ;
set Ts[5]:=
1_3_4 2_3_4 2_9_10 3_3_4 3_7_8 4_7_8 5_9_10 ;
set Ts[6]:=
4_5_6 5_5_6 5_9_10 ;
set Ts[7]:=
1_7_8 3_7_8 4_1_2 5_3_4 5_7_8 ;
set Ts[8]:=
1_1_2 1_5_6 1_9_10 3_1_2 3_3_4 4_9_10 ;
set Ts[9]:=
2_3_4 3_1_2 4_5_6 4_7_8 ;
set Ts[10]:=
1_9_10 3_5_6 3_9_10 4_1_2 4_5_6 4_7_8 ;
set Ts[11]:=
3_5_6 4_3_4 4_9_10 5_3_4 ;
set Ts[12]:=
3_7_8 4_7_8 5_9_10 ;
set Ts[13]:=
1_7_8 1_9_10 2_5_6 2_9_10 3_3_4 4_9_10 5_9_10 ;
set Ts[14]:=
1_9_10 3_1_2 3_3_4 3_5_6 5_3_4 5_5_6 5_7_8 ;
set Ts[15]:=
2_1_2 3_7_8 4_5_6 ;
set Ts[16]:=
1_1_2 1_3_4 1_9_10 3_5_6 4_9_10 ;
set Ts[17]:=
1_1_2 1_3_4 2_1_2 2_5_6 3_9_10 4_1_2 4_3_4 ;
set Ts[18]:=
1_1_2 3_9_10 4_1_2 5_7_8 ;
set Ts[19]:=
1_1_2 2_3_4 2_5_6 2_9_10 3_1_2 5_3_4 ;
set Ts[20]:=
4_5_6 4_7_8 5_1_2 ;
set Ts[21]:=
1_5_6 3_1_2 3_3_4 4_3_4 ;
set Ts[22]:=
2_3_4 4_3_4 4_7_8 4_9_10 ;
set Ts[23]:=
1_7_8 2_1_2 2_3_4 2_7_8 3_3_4 4_9_10 5_3_4 ;
set Ts[24]:=
1_9_10 2_1_2 2_9_10 ;
set Ts[25]:=
2_9_10 3_1_2 3_3_4 ;
set Ts[26]:=
2_1_2 4_1_2 4_5_6 4_9_10 5_9_10 ;
set Ts[27]:=
1_3_4 2_1_2 2_3_4 2_7_8 3_5_6 ;
set Ts[28]:=
2_1_2 2_5_6 2_7_8 3_3_4 3_7_8 4_3_4 ;
set Ts[29]:=
1_7_8 3_9_10 4_9_10 5_9_10 ;
set Ts[30]:=
2_5_6 2_7_8 4_3_4 ;

param rho:=
3 20
5 20
8 20
;

param sigma_class:=
1 20
2 20
4 20
7 20
12 20
;

param kmin:=
1 2
2 2
3 2
4 2
5 2
6 2
7 2
8 2
9 2
10 2
11 2
12 2
13 2
14 2
15 2
16 2
17 2
18 2
19 2
20 2
21 2
22 2
23 2
24 2
25 2
26 2
27 2
28 2
29 2
30 2
;

param kmax:=
1 5
2 4
3 4
4 4
5 4
6 4
7 4
8 5
9 4
10 5
11 5
12 5
13 4
14 4
15 5
16 5
17 4
18 5
19 4
20 4
21 4
22 5
23 5
24 5
25 5
26 4
27 5
28 4
29 4
30 5
;

